c File: flat150_3_0.col
c
c SOURCE: Joseph Culberson (joe@cs.ualberta.ca)
c DESCRIPTION: Quasi-random coloring problem
c              generated with flatness = 0
c                             probability = 0.048
c                             known coloring = 3
c                             random seed = 1041
c              Creation Date:  Wed Feb 24 10:37:28 1999
c Maximum degree = 8 Minimum degree = 1
c COLOR VERIFICATION: Using the permuted order
c under simple greedy yields the specified
c coloring number
c Color = 3 specified partitions = 3
c p edge 150 360
c cnf created by edge2cnf
p cnf 450 1680
-1 -2 0
-1 -3 0
-2 -3 0
1 2 3 0
-4 -5 0
-4 -6 0
-5 -6 0
4 5 6 0
-7 -8 0
-7 -9 0
-8 -9 0
7 8 9 0
-10 -11 0
-10 -12 0
-11 -12 0
10 11 12 0
-13 -14 0
-13 -15 0
-14 -15 0
13 14 15 0
-16 -17 0
-16 -18 0
-17 -18 0
16 17 18 0
-19 -20 0
-19 -21 0
-20 -21 0
19 20 21 0
-22 -23 0
-22 -24 0
-23 -24 0
22 23 24 0
-25 -26 0
-25 -27 0
-26 -27 0
25 26 27 0
-28 -29 0
-28 -30 0
-29 -30 0
28 29 30 0
-31 -32 0
-31 -33 0
-32 -33 0
31 32 33 0
-34 -35 0
-34 -36 0
-35 -36 0
34 35 36 0
-37 -38 0
-37 -39 0
-38 -39 0
37 38 39 0
-40 -41 0
-40 -42 0
-41 -42 0
40 41 42 0
-43 -44 0
-43 -45 0
-44 -45 0
43 44 45 0
-46 -47 0
-46 -48 0
-47 -48 0
46 47 48 0
-49 -50 0
-49 -51 0
-50 -51 0
49 50 51 0
-52 -53 0
-52 -54 0
-53 -54 0
52 53 54 0
-55 -56 0
-55 -57 0
-56 -57 0
55 56 57 0
-58 -59 0
-58 -60 0
-59 -60 0
58 59 60 0
-61 -62 0
-61 -63 0
-62 -63 0
61 62 63 0
-64 -65 0
-64 -66 0
-65 -66 0
64 65 66 0
-67 -68 0
-67 -69 0
-68 -69 0
67 68 69 0
-70 -71 0
-70 -72 0
-71 -72 0
70 71 72 0
-73 -74 0
-73 -75 0
-74 -75 0
73 74 75 0
-76 -77 0
-76 -78 0
-77 -78 0
76 77 78 0
-79 -80 0
-79 -81 0
-80 -81 0
79 80 81 0
-82 -83 0
-82 -84 0
-83 -84 0
82 83 84 0
-85 -86 0
-85 -87 0
-86 -87 0
85 86 87 0
-88 -89 0
-88 -90 0
-89 -90 0
88 89 90 0
-91 -92 0
-91 -93 0
-92 -93 0
91 92 93 0
-94 -95 0
-94 -96 0
-95 -96 0
94 95 96 0
-97 -98 0
-97 -99 0
-98 -99 0
97 98 99 0
-100 -101 0
-100 -102 0
-101 -102 0
100 101 102 0
-103 -104 0
-103 -105 0
-104 -105 0
103 104 105 0
-106 -107 0
-106 -108 0
-107 -108 0
106 107 108 0
-109 -110 0
-109 -111 0
-110 -111 0
109 110 111 0
-112 -113 0
-112 -114 0
-113 -114 0
112 113 114 0
-115 -116 0
-115 -117 0
-116 -117 0
115 116 117 0
-118 -119 0
-118 -120 0
-119 -120 0
118 119 120 0
-121 -122 0
-121 -123 0
-122 -123 0
121 122 123 0
-124 -125 0
-124 -126 0
-125 -126 0
124 125 126 0
-127 -128 0
-127 -129 0
-128 -129 0
127 128 129 0
-130 -131 0
-130 -132 0
-131 -132 0
130 131 132 0
-133 -134 0
-133 -135 0
-134 -135 0
133 134 135 0
-136 -137 0
-136 -138 0
-137 -138 0
136 137 138 0
-139 -140 0
-139 -141 0
-140 -141 0
139 140 141 0
-142 -143 0
-142 -144 0
-143 -144 0
142 143 144 0
-145 -146 0
-145 -147 0
-146 -147 0
145 146 147 0
-148 -149 0
-148 -150 0
-149 -150 0
148 149 150 0
-151 -152 0
-151 -153 0
-152 -153 0
151 152 153 0
-154 -155 0
-154 -156 0
-155 -156 0
154 155 156 0
-157 -158 0
-157 -159 0
-158 -159 0
157 158 159 0
-160 -161 0
-160 -162 0
-161 -162 0
160 161 162 0
-163 -164 0
-163 -165 0
-164 -165 0
163 164 165 0
-166 -167 0
-166 -168 0
-167 -168 0
166 167 168 0
-169 -170 0
-169 -171 0
-170 -171 0
169 170 171 0
-172 -173 0
-172 -174 0
-173 -174 0
172 173 174 0
-175 -176 0
-175 -177 0
-176 -177 0
175 176 177 0
-178 -179 0
-178 -180 0
-179 -180 0
178 179 180 0
-181 -182 0
-181 -183 0
-182 -183 0
181 182 183 0
-184 -185 0
-184 -186 0
-185 -186 0
184 185 186 0
-187 -188 0
-187 -189 0
-188 -189 0
187 188 189 0
-190 -191 0
-190 -192 0
-191 -192 0
190 191 192 0
-193 -194 0
-193 -195 0
-194 -195 0
193 194 195 0
-196 -197 0
-196 -198 0
-197 -198 0
196 197 198 0
-199 -200 0
-199 -201 0
-200 -201 0
199 200 201 0
-202 -203 0
-202 -204 0
-203 -204 0
202 203 204 0
-205 -206 0
-205 -207 0
-206 -207 0
205 206 207 0
-208 -209 0
-208 -210 0
-209 -210 0
208 209 210 0
-211 -212 0
-211 -213 0
-212 -213 0
211 212 213 0
-214 -215 0
-214 -216 0
-215 -216 0
214 215 216 0
-217 -218 0
-217 -219 0
-218 -219 0
217 218 219 0
-220 -221 0
-220 -222 0
-221 -222 0
220 221 222 0
-223 -224 0
-223 -225 0
-224 -225 0
223 224 225 0
-226 -227 0
-226 -228 0
-227 -228 0
226 227 228 0
-229 -230 0
-229 -231 0
-230 -231 0
229 230 231 0
-232 -233 0
-232 -234 0
-233 -234 0
232 233 234 0
-235 -236 0
-235 -237 0
-236 -237 0
235 236 237 0
-238 -239 0
-238 -240 0
-239 -240 0
238 239 240 0
-241 -242 0
-241 -243 0
-242 -243 0
241 242 243 0
-244 -245 0
-244 -246 0
-245 -246 0
244 245 246 0
-247 -248 0
-247 -249 0
-248 -249 0
247 248 249 0
-250 -251 0
-250 -252 0
-251 -252 0
250 251 252 0
-253 -254 0
-253 -255 0
-254 -255 0
253 254 255 0
-256 -257 0
-256 -258 0
-257 -258 0
256 257 258 0
-259 -260 0
-259 -261 0
-260 -261 0
259 260 261 0
-262 -263 0
-262 -264 0
-263 -264 0
262 263 264 0
-265 -266 0
-265 -267 0
-266 -267 0
265 266 267 0
-268 -269 0
-268 -270 0
-269 -270 0
268 269 270 0
-271 -272 0
-271 -273 0
-272 -273 0
271 272 273 0
-274 -275 0
-274 -276 0
-275 -276 0
274 275 276 0
-277 -278 0
-277 -279 0
-278 -279 0
277 278 279 0
-280 -281 0
-280 -282 0
-281 -282 0
280 281 282 0
-283 -284 0
-283 -285 0
-284 -285 0
283 284 285 0
-286 -287 0
-286 -288 0
-287 -288 0
286 287 288 0
-289 -290 0
-289 -291 0
-290 -291 0
289 290 291 0
-292 -293 0
-292 -294 0
-293 -294 0
292 293 294 0
-295 -296 0
-295 -297 0
-296 -297 0
295 296 297 0
-298 -299 0
-298 -300 0
-299 -300 0
298 299 300 0
-301 -302 0
-301 -303 0
-302 -303 0
301 302 303 0
-304 -305 0
-304 -306 0
-305 -306 0
304 305 306 0
-307 -308 0
-307 -309 0
-308 -309 0
307 308 309 0
-310 -311 0
-310 -312 0
-311 -312 0
310 311 312 0
-313 -314 0
-313 -315 0
-314 -315 0
313 314 315 0
-316 -317 0
-316 -318 0
-317 -318 0
316 317 318 0
-319 -320 0
-319 -321 0
-320 -321 0
319 320 321 0
-322 -323 0
-322 -324 0
-323 -324 0
322 323 324 0
-325 -326 0
-325 -327 0
-326 -327 0
325 326 327 0
-328 -329 0
-328 -330 0
-329 -330 0
328 329 330 0
-331 -332 0
-331 -333 0
-332 -333 0
331 332 333 0
-334 -335 0
-334 -336 0
-335 -336 0
334 335 336 0
-337 -338 0
-337 -339 0
-338 -339 0
337 338 339 0
-340 -341 0
-340 -342 0
-341 -342 0
340 341 342 0
-343 -344 0
-343 -345 0
-344 -345 0
343 344 345 0
-346 -347 0
-346 -348 0
-347 -348 0
346 347 348 0
-349 -350 0
-349 -351 0
-350 -351 0
349 350 351 0
-352 -353 0
-352 -354 0
-353 -354 0
352 353 354 0
-355 -356 0
-355 -357 0
-356 -357 0
355 356 357 0
-358 -359 0
-358 -360 0
-359 -360 0
358 359 360 0
-361 -362 0
-361 -363 0
-362 -363 0
361 362 363 0
-364 -365 0
-364 -366 0
-365 -366 0
364 365 366 0
-367 -368 0
-367 -369 0
-368 -369 0
367 368 369 0
-370 -371 0
-370 -372 0
-371 -372 0
370 371 372 0
-373 -374 0
-373 -375 0
-374 -375 0
373 374 375 0
-376 -377 0
-376 -378 0
-377 -378 0
376 377 378 0
-379 -380 0
-379 -381 0
-380 -381 0
379 380 381 0
-382 -383 0
-382 -384 0
-383 -384 0
382 383 384 0
-385 -386 0
-385 -387 0
-386 -387 0
385 386 387 0
-388 -389 0
-388 -390 0
-389 -390 0
388 389 390 0
-391 -392 0
-391 -393 0
-392 -393 0
391 392 393 0
-394 -395 0
-394 -396 0
-395 -396 0
394 395 396 0
-397 -398 0
-397 -399 0
-398 -399 0
397 398 399 0
-400 -401 0
-400 -402 0
-401 -402 0
400 401 402 0
-403 -404 0
-403 -405 0
-404 -405 0
403 404 405 0
-406 -407 0
-406 -408 0
-407 -408 0
406 407 408 0
-409 -410 0
-409 -411 0
-410 -411 0
409 410 411 0
-412 -413 0
-412 -414 0
-413 -414 0
412 413 414 0
-415 -416 0
-415 -417 0
-416 -417 0
415 416 417 0
-418 -419 0
-418 -420 0
-419 -420 0
418 419 420 0
-421 -422 0
-421 -423 0
-422 -423 0
421 422 423 0
-424 -425 0
-424 -426 0
-425 -426 0
424 425 426 0
-427 -428 0
-427 -429 0
-428 -429 0
427 428 429 0
-430 -431 0
-430 -432 0
-431 -432 0
430 431 432 0
-433 -434 0
-433 -435 0
-434 -435 0
433 434 435 0
-436 -437 0
-436 -438 0
-437 -438 0
436 437 438 0
-439 -440 0
-439 -441 0
-440 -441 0
439 440 441 0
-442 -443 0
-442 -444 0
-443 -444 0
442 443 444 0
-445 -446 0
-445 -447 0
-446 -447 0
445 446 447 0
-448 -449 0
-448 -450 0
-449 -450 0
448 449 450 0
-121 -1 0
-122 -2 0
-123 -3 0
-127 -1 0
-128 -2 0
-129 -3 0
-247 -1 0
-248 -2 0
-249 -3 0
-130 -4 0
-131 -5 0
-132 -6 0
-124 -7 0
-125 -8 0
-126 -9 0
-229 -7 0
-230 -8 0
-231 -9 0
-364 -7 0
-365 -8 0
-366 -9 0
-406 -7 0
-407 -8 0
-408 -9 0
-427 -7 0
-428 -8 0
-429 -9 0
-448 -7 0
-449 -8 0
-450 -9 0
-304 -10 0
-305 -11 0
-306 -12 0
-418 -10 0
-419 -11 0
-420 -12 0
-421 -10 0
-422 -11 0
-423 -12 0
-22 -13 0
-23 -14 0
-24 -15 0
-70 -13 0
-71 -14 0
-72 -15 0
-118 -13 0
-119 -14 0
-120 -15 0
-307 -13 0
-308 -14 0
-309 -15 0
-361 -13 0
-362 -14 0
-363 -15 0
-370 -13 0
-371 -14 0
-372 -15 0
-82 -16 0
-83 -17 0
-84 -18 0
-193 -16 0
-194 -17 0
-195 -18 0
-214 -16 0
-215 -17 0
-216 -18 0
-235 -16 0
-236 -17 0
-237 -18 0
-346 -16 0
-347 -17 0
-348 -18 0
-415 -16 0
-416 -17 0
-417 -18 0
-421 -16 0
-422 -17 0
-423 -18 0
-55 -19 0
-56 -20 0
-57 -21 0
-130 -19 0
-131 -20 0
-132 -21 0
-256 -19 0
-257 -20 0
-258 -21 0
-289 -19 0
-290 -20 0
-291 -21 0
-427 -19 0
-428 -20 0
-429 -21 0
-76 -22 0
-77 -23 0
-78 -24 0
-94 -22 0
-95 -23 0
-96 -24 0
-97 -22 0
-98 -23 0
-99 -24 0
-130 -22 0
-131 -23 0
-132 -24 0
-196 -22 0
-197 -23 0
-198 -24 0
-217 -22 0
-218 -23 0
-219 -24 0
-28 -25 0
-29 -26 0
-30 -27 0
-55 -25 0
-56 -26 0
-57 -27 0
-301 -25 0
-302 -26 0
-303 -27 0
-400 -25 0
-401 -26 0
-402 -27 0
-403 -25 0
-404 -26 0
-405 -27 0
-43 -28 0
-44 -29 0
-45 -30 0
-118 -28 0
-119 -29 0
-120 -30 0
-436 -28 0
-437 -29 0
-438 -30 0
-316 -31 0
-317 -32 0
-318 -33 0
-403 -31 0
-404 -32 0
-405 -33 0
-439 -31 0
-440 -32 0
-441 -33 0
-64 -34 0
-65 -35 0
-66 -36 0
-94 -34 0
-95 -35 0
-96 -36 0
-154 -34 0
-155 -35 0
-156 -36 0
-211 -34 0
-212 -35 0
-213 -36 0
-226 -34 0
-227 -35 0
-228 -36 0
-244 -34 0
-245 -35 0
-246 -36 0
-379 -34 0
-380 -35 0
-381 -36 0
-259 -37 0
-260 -38 0
-261 -39 0
-58 -40 0
-59 -41 0
-60 -42 0
-64 -40 0
-65 -41 0
-66 -42 0
-229 -40 0
-230 -41 0
-231 -42 0
-244 -40 0
-245 -41 0
-246 -42 0
-250 -40 0
-251 -41 0
-252 -42 0
-292 -40 0
-293 -41 0
-294 -42 0
-115 -43 0
-116 -44 0
-117 -45 0
-349 -43 0
-350 -44 0
-351 -45 0
-88 -46 0
-89 -47 0
-90 -48 0
-256 -46 0
-257 -47 0
-258 -48 0
-298 -46 0
-299 -47 0
-300 -48 0
-322 -46 0
-323 -47 0
-324 -48 0
-352 -46 0
-353 -47 0
-354 -48 0
-382 -46 0
-383 -47 0
-384 -48 0
-79 -49 0
-80 -50 0
-81 -51 0
-127 -49 0
-128 -50 0
-129 -51 0
-283 -49 0
-284 -50 0
-285 -51 0
-328 -49 0
-329 -50 0
-330 -51 0
-379 -49 0
-380 -50 0
-381 -51 0
-430 -49 0
-431 -50 0
-432 -51 0
-241 -52 0
-242 -53 0
-243 -54 0
-262 -52 0
-263 -53 0
-264 -54 0
-385 -52 0
-386 -53 0
-387 -54 0
-424 -52 0
-425 -53 0
-426 -54 0
-244 -55 0
-245 -56 0
-246 -57 0
-271 -55 0
-272 -56 0
-273 -57 0
-448 -55 0
-449 -56 0
-450 -57 0
-385 -58 0
-386 -59 0
-387 -60 0
-442 -58 0
-443 -59 0
-444 -60 0
-70 -61 0
-71 -62 0
-72 -63 0
-103 -61 0
-104 -62 0
-105 -63 0
-421 -61 0
-422 -62 0
-423 -63 0
-424 -61 0
-425 -62 0
-426 -63 0
-175 -64 0
-176 -65 0
-177 -66 0
-223 -64 0
-224 -65 0
-225 -66 0
-226 -64 0
-227 -65 0
-228 -66 0
-82 -67 0
-83 -68 0
-84 -69 0
-217 -67 0
-218 -68 0
-219 -69 0
-226 -67 0
-227 -68 0
-228 -69 0
-229 -67 0
-230 -68 0
-231 -69 0
-127 -70 0
-128 -71 0
-129 -72 0
-145 -70 0
-146 -71 0
-147 -72 0
-319 -70 0
-320 -71 0
-321 -72 0
-154 -73 0
-155 -74 0
-156 -75 0
-184 -73 0
-185 -74 0
-186 -75 0
-217 -73 0
-218 -74 0
-219 -75 0
-313 -73 0
-314 -74 0
-315 -75 0
-316 -73 0
-317 -74 0
-318 -75 0
-319 -73 0
-320 -74 0
-321 -75 0
-121 -76 0
-122 -77 0
-123 -78 0
-163 -76 0
-164 -77 0
-165 -78 0
-193 -76 0
-194 -77 0
-195 -78 0
-349 -76 0
-350 -77 0
-351 -78 0
-352 -76 0
-353 -77 0
-354 -78 0
-100 -79 0
-101 -80 0
-102 -81 0
-127 -79 0
-128 -80 0
-129 -81 0
-139 -79 0
-140 -80 0
-141 -81 0
-337 -79 0
-338 -80 0
-339 -81 0
-115 -82 0
-116 -83 0
-117 -84 0
-124 -82 0
-125 -83 0
-126 -84 0
-430 -82 0
-431 -83 0
-432 -84 0
-127 -85 0
-128 -86 0
-129 -87 0
-175 -85 0
-176 -86 0
-177 -87 0
-277 -85 0
-278 -86 0
-279 -87 0
-337 -85 0
-338 -86 0
-339 -87 0
-349 -85 0
-350 -86 0
-351 -87 0
-217 -88 0
-218 -89 0
-219 -90 0
-418 -88 0
-419 -89 0
-420 -90 0
-445 -88 0
-446 -89 0
-447 -90 0
-190 -91 0
-191 -92 0
-192 -93 0
-358 -91 0
-359 -92 0
-360 -93 0
-364 -91 0
-365 -92 0
-366 -93 0
-205 -94 0
-206 -95 0
-207 -96 0
-415 -94 0
-416 -95 0
-417 -96 0
-427 -94 0
-428 -95 0
-429 -96 0
-142 -97 0
-143 -98 0
-144 -99 0
-202 -97 0
-203 -98 0
-204 -99 0
-280 -97 0
-281 -98 0
-282 -99 0
-310 -97 0
-311 -98 0
-312 -99 0
-442 -97 0
-443 -98 0
-444 -99 0
-232 -100 0
-233 -101 0
-234 -102 0
-247 -100 0
-248 -101 0
-249 -102 0
-331 -100 0
-332 -101 0
-333 -102 0
-121 -103 0
-122 -104 0
-123 -105 0
-178 -103 0
-179 -104 0
-180 -105 0
-250 -103 0
-251 -104 0
-252 -105 0
-346 -103 0
-347 -104 0
-348 -105 0
-364 -103 0
-365 -104 0
-366 -105 0
-187 -106 0
-188 -107 0
-189 -108 0
-232 -106 0
-233 -107 0
-234 -108 0
-292 -106 0
-293 -107 0
-294 -108 0
-313 -106 0
-314 -107 0
-315 -108 0
-391 -106 0
-392 -107 0
-393 -108 0
-148 -109 0
-149 -110 0
-150 -111 0
-229 -109 0
-230 -110 0
-231 -111 0
-310 -109 0
-311 -110 0
-312 -111 0
-439 -109 0
-440 -110 0
-441 -111 0
-124 -112 0
-125 -113 0
-126 -114 0
-202 -112 0
-203 -113 0
-204 -114 0
-175 -115 0
-176 -116 0
-177 -117 0
-217 -115 0
-218 -116 0
-219 -117 0
-250 -115 0
-251 -116 0
-252 -117 0
-304 -115 0
-305 -116 0
-306 -117 0
-448 -115 0
-449 -116 0
-450 -117 0
-277 -118 0
-278 -119 0
-279 -120 0
-154 -121 0
-155 -122 0
-156 -123 0
-358 -124 0
-359 -125 0
-360 -126 0
-370 -124 0
-371 -125 0
-372 -126 0
-376 -124 0
-377 -125 0
-378 -126 0
-391 -124 0
-392 -125 0
-393 -126 0
-343 -127 0
-344 -128 0
-345 -129 0
-373 -127 0
-374 -128 0
-375 -129 0
-415 -127 0
-416 -128 0
-417 -129 0
-133 -130 0
-134 -131 0
-135 -132 0
-262 -130 0
-263 -131 0
-264 -132 0
-274 -130 0
-275 -131 0
-276 -132 0
-163 -133 0
-164 -134 0
-165 -135 0
-223 -133 0
-224 -134 0
-225 -135 0
-280 -133 0
-281 -134 0
-282 -135 0
-403 -133 0
-404 -134 0
-405 -135 0
-436 -133 0
-437 -134 0
-438 -135 0
-181 -136 0
-182 -137 0
-183 -138 0
-193 -136 0
-194 -137 0
-195 -138 0
-223 -136 0
-224 -137 0
-225 -138 0
-244 -136 0
-245 -137 0
-246 -138 0
-271 -136 0
-272 -137 0
-273 -138 0
-376 -136 0
-377 -137 0
-378 -138 0
-421 -136 0
-422 -137 0
-423 -138 0
-178 -139 0
-179 -140 0
-180 -141 0
-214 -139 0
-215 -140 0
-216 -141 0
-259 -139 0
-260 -140 0
-261 -141 0
-400 -139 0
-401 -140 0
-402 -141 0
-214 -142 0
-215 -143 0
-216 -144 0
-325 -142 0
-326 -143 0
-327 -144 0
-421 -142 0
-422 -143 0
-423 -144 0
-424 -142 0
-425 -143 0
-426 -144 0
-181 -145 0
-182 -146 0
-183 -147 0
-238 -145 0
-239 -146 0
-240 -147 0
-298 -145 0
-299 -146 0
-300 -147 0
-307 -145 0
-308 -146 0
-309 -147 0
-256 -148 0
-257 -149 0
-258 -150 0
-289 -148 0
-290 -149 0
-291 -150 0
-337 -148 0
-338 -149 0
-339 -150 0
-370 -148 0
-371 -149 0
-372 -150 0
-403 -148 0
-404 -149 0
-405 -150 0
-418 -148 0
-419 -149 0
-420 -150 0
-187 -151 0
-188 -152 0
-189 -153 0
-196 -151 0
-197 -152 0
-198 -153 0
-328 -151 0
-329 -152 0
-330 -153 0
-358 -151 0
-359 -152 0
-360 -153 0
-268 -154 0
-269 -155 0
-270 -156 0
-313 -154 0
-314 -155 0
-315 -156 0
-367 -154 0
-368 -155 0
-369 -156 0
-394 -154 0
-395 -155 0
-396 -156 0
-235 -157 0
-236 -158 0
-237 -159 0
-271 -157 0
-272 -158 0
-273 -159 0
-427 -157 0
-428 -158 0
-429 -159 0
-280 -160 0
-281 -161 0
-282 -162 0
-289 -160 0
-290 -161 0
-291 -162 0
-355 -160 0
-356 -161 0
-357 -162 0
-169 -163 0
-170 -164 0
-171 -165 0
-376 -163 0
-377 -164 0
-378 -165 0
-382 -163 0
-383 -164 0
-384 -165 0
-199 -166 0
-200 -167 0
-201 -168 0
-355 -166 0
-356 -167 0
-357 -168 0
-193 -169 0
-194 -170 0
-195 -171 0
-388 -169 0
-389 -170 0
-390 -171 0
-319 -172 0
-320 -173 0
-321 -174 0
-322 -172 0
-323 -173 0
-324 -174 0
-364 -172 0
-365 -173 0
-366 -174 0
-379 -172 0
-380 -173 0
-381 -174 0
-205 -175 0
-206 -176 0
-207 -177 0
-367 -175 0
-368 -176 0
-369 -177 0
-388 -175 0
-389 -176 0
-390 -177 0
-202 -178 0
-203 -179 0
-204 -180 0
-355 -178 0
-356 -179 0
-357 -180 0
-412 -178 0
-413 -179 0
-414 -180 0
-421 -178 0
-422 -179 0
-423 -180 0
-439 -178 0
-440 -179 0
-441 -180 0
-232 -181 0
-233 -182 0
-234 -183 0
-358 -181 0
-359 -182 0
-360 -183 0
-214 -184 0
-215 -185 0
-216 -186 0
-220 -184 0
-221 -185 0
-222 -186 0
-286 -184 0
-287 -185 0
-288 -186 0
-250 -187 0
-251 -188 0
-252 -189 0
-253 -187 0
-254 -188 0
-255 -189 0
-268 -187 0
-269 -188 0
-270 -189 0
-346 -187 0
-347 -188 0
-348 -189 0
-406 -187 0
-407 -188 0
-408 -189 0
-229 -190 0
-230 -191 0
-231 -192 0
-361 -190 0
-362 -191 0
-363 -192 0
-373 -190 0
-374 -191 0
-375 -192 0
-286 -193 0
-287 -194 0
-288 -195 0
-361 -193 0
-362 -194 0
-363 -195 0
-202 -196 0
-203 -197 0
-204 -198 0
-421 -196 0
-422 -197 0
-423 -198 0
-205 -199 0
-206 -200 0
-207 -201 0
-334 -199 0
-335 -200 0
-336 -201 0
-277 -202 0
-278 -203 0
-279 -204 0
-289 -202 0
-290 -203 0
-291 -204 0
-433 -202 0
-434 -203 0
-435 -204 0
-208 -205 0
-209 -206 0
-210 -207 0
-268 -205 0
-269 -206 0
-270 -207 0
-277 -205 0
-278 -206 0
-279 -207 0
-391 -208 0
-392 -209 0
-393 -210 0
-397 -208 0
-398 -209 0
-399 -210 0
-220 -211 0
-221 -212 0
-222 -213 0
-283 -211 0
-284 -212 0
-285 -213 0
-307 -211 0
-308 -212 0
-309 -213 0
-436 -211 0
-437 -212 0
-438 -213 0
-217 -214 0
-218 -215 0
-219 -216 0
-220 -214 0
-221 -215 0
-222 -216 0
-355 -217 0
-356 -218 0
-357 -219 0
-325 -220 0
-326 -221 0
-327 -222 0
-412 -220 0
-413 -221 0
-414 -222 0
-334 -223 0
-335 -224 0
-336 -225 0
-379 -223 0
-380 -224 0
-381 -225 0
-241 -226 0
-242 -227 0
-243 -228 0
-256 -226 0
-257 -227 0
-258 -228 0
-424 -226 0
-425 -227 0
-426 -228 0
-436 -226 0
-437 -227 0
-438 -228 0
-352 -229 0
-353 -230 0
-354 -231 0
-397 -229 0
-398 -230 0
-399 -231 0
-268 -232 0
-269 -233 0
-270 -234 0
-271 -232 0
-272 -233 0
-273 -234 0
-343 -232 0
-344 -233 0
-345 -234 0
-382 -232 0
-383 -233 0
-384 -234 0
-247 -235 0
-248 -236 0
-249 -237 0
-319 -235 0
-320 -236 0
-321 -237 0
-349 -235 0
-350 -236 0
-351 -237 0
-400 -235 0
-401 -236 0
-402 -237 0
-328 -238 0
-329 -239 0
-330 -240 0
-295 -241 0
-296 -242 0
-297 -243 0
-313 -241 0
-314 -242 0
-315 -243 0
-307 -244 0
-308 -245 0
-309 -246 0
-364 -244 0
-365 -245 0
-366 -246 0
-382 -247 0
-383 -248 0
-384 -249 0
-259 -250 0
-260 -251 0
-261 -252 0
-265 -250 0
-266 -251 0
-267 -252 0
-436 -250 0
-437 -251 0
-438 -252 0
-286 -253 0
-287 -254 0
-288 -255 0
-289 -256 0
-290 -257 0
-291 -258 0
-331 -256 0
-332 -257 0
-333 -258 0
-394 -256 0
-395 -257 0
-396 -258 0
-325 -259 0
-326 -260 0
-327 -261 0
-304 -262 0
-305 -263 0
-306 -264 0
-316 -265 0
-317 -266 0
-318 -267 0
-442 -265 0
-443 -266 0
-444 -267 0
-391 -271 0
-392 -272 0
-393 -273 0
-289 -274 0
-290 -275 0
-291 -276 0
-337 -274 0
-338 -275 0
-339 -276 0
-382 -274 0
-383 -275 0
-384 -276 0
-304 -277 0
-305 -278 0
-306 -279 0
-436 -277 0
-437 -278 0
-438 -279 0
-367 -280 0
-368 -281 0
-369 -282 0
-334 -283 0
-335 -284 0
-336 -285 0
-424 -283 0
-425 -284 0
-426 -285 0
-433 -283 0
-434 -284 0
-435 -285 0
-442 -283 0
-443 -284 0
-444 -285 0
-298 -292 0
-299 -293 0
-300 -294 0
-334 -292 0
-335 -293 0
-336 -294 0
-340 -292 0
-341 -293 0
-342 -294 0
-358 -295 0
-359 -296 0
-360 -297 0
-436 -295 0
-437 -296 0
-438 -297 0
-337 -298 0
-338 -299 0
-339 -300 0
-388 -298 0
-389 -299 0
-390 -300 0
-373 -301 0
-374 -302 0
-375 -303 0
-448 -301 0
-449 -302 0
-450 -303 0
-391 -304 0
-392 -305 0
-393 -306 0
-403 -307 0
-404 -308 0
-405 -309 0
-334 -313 0
-335 -314 0
-336 -315 0
-448 -313 0
-449 -314 0
-450 -315 0
-337 -316 0
-338 -317 0
-339 -318 0
-361 -319 0
-362 -320 0
-363 -321 0
-370 -319 0
-371 -320 0
-372 -321 0
-394 -319 0
-395 -320 0
-396 -321 0
-433 -319 0
-434 -320 0
-435 -321 0
-334 -325 0
-335 -326 0
-336 -327 0
-388 -325 0
-389 -326 0
-390 -327 0
-400 -325 0
-401 -326 0
-402 -327 0
-412 -325 0
-413 -326 0
-414 -327 0
-376 -331 0
-377 -332 0
-378 -333 0
-433 -331 0
-434 -332 0
-435 -333 0
-346 -343 0
-347 -344 0
-348 -345 0
-394 -346 0
-395 -347 0
-396 -348 0
-415 -346 0
-416 -347 0
-417 -348 0
-394 -349 0
-395 -350 0
-396 -351 0
-445 -349 0
-446 -350 0
-447 -351 0
-364 -355 0
-365 -356 0
-366 -357 0
-388 -358 0
-389 -359 0
-390 -360 0
-382 -361 0
-383 -362 0
-384 -363 0
-370 -367 0
-371 -368 0
-372 -369 0
-385 -367 0
-386 -368 0
-387 -369 0
-397 -376 0
-398 -377 0
-399 -378 0
-406 -376 0
-407 -377 0
-408 -378 0
-409 -376 0
-410 -377 0
-411 -378 0
-406 -385 0
-407 -386 0
-408 -387 0
-448 -391 0
-449 -392 0
-450 -393 0
-427 -397 0
-428 -398 0
-429 -399 0
-433 -400 0
-434 -401 0
-435 -402 0
-424 -409 0
-425 -410 0
-426 -411 0
-442 -409 0
-443 -410 0
-444 -411 0
-442 -412 0
-443 -413 0
-444 -414 0
-433 -421 0
-434 -422 0
-435 -423 0
